%chk=C:\Users\melih\Desktop\Gaussian\H2ClC-CClH2  1,2 dichloroethane\energy.chk
# hf/3-21g geom=connectivity

Title Card Required

0 1
 C                  0.65217393    0.21739130    0.00000000
 H                  1.00882836   -0.79141870    0.00000000
 H                  1.00884677    0.72178949   -0.87365150
 C                 -0.88782607    0.21741028    0.00000000
 H                 -1.24449863   -0.28697156   -0.87366106
 H                 -1.24449914   -0.28700491    0.87364160
 Cl                -1.47447177    1.87676160    0.00003207
 Cl                 1.23885075    1.04705561    1.43703425

 1 2 1.0 3 1.0 4 1.0 8 1.0
 2
 3
 4 5 1.0 6 1.0 7 1.0
 5
 6
 7
 8

