%chk=C:\Users\melih\Desktop\Gaussian\H2ClCCClH2\energy123.chk
# opt=modredundant hf/3-21g geom=connectivity

Title Card Required

0 1
 C                  1.42857147    0.09316770    0.00000000
 H                  1.78522756   -0.78053679    0.50431825
 H                  1.78523809    0.09326064   -1.00880568
 C                 -0.11142853    0.09318668    0.00000000
 H                 -0.46809487    0.09328875   -1.00880579
 H                 -0.46810615   -0.78050911    0.50431810
 Cl                -0.69807697    1.53014750    0.82981155
 Cl                 2.01525577    1.53011392    0.82981147

 1 2 1.0 3 1.0 4 1.0 8 1.0
 2
 3
 4 5 1.0 6 1.0 7 1.0
 5
 6
 7
 8

D 7 4 1 8 S 36 10.000000

