%chk=C:\Users\melih\Desktop\Gaussian\H2ClCCClH2\energy12.chk
# opt=modredundant hf/3-21g geom=connectivity

Title Card Required

0 1
 C                  0.27981500    0.71735900    0.94229000
 H                 -0.06057200    1.23297100    1.81589200
 H                  1.34926400    0.68304600    0.94238800
 C                 -0.27981500   -0.71735900    0.94229000
 H                  0.06057200   -1.23297100    1.81589200
 H                 -1.34926400   -0.68304600    0.94238800
 Cl                 0.27981500   -1.56536600   -0.49482500
 Cl                -0.27981500    1.56536600   -0.49482500

 1 2 1.0 3 1.0 4 1.0 8 1.0
 2
 3
 4 5 1.0 6 1.0 7 1.0
 5
 6
 7
 8

D 8 1 4 7 S 36 10.000000

