%chk=C:\Users\melih\Desktop\Gaussian\H2ClC-CClH2  1,2 dichloroethane\Opt1.chk
# opt hf/6-31g geom=connectivity

Title Card Required

0 1
 C                  1.45962737    0.21739130    0.00000000
 H                  1.81628179   -0.79141870    0.00000000
 H                  1.81630021    0.72178949   -0.87365150
 C                 -0.08037263    0.21741028    0.00000000
 H                 -0.43704519   -0.28697156   -0.87366106
 H                 -0.43704570   -0.28700491    0.87364160
 Cl                 2.04630419    1.04705561    1.43703425
 Cl                -0.66701833    1.87676160    0.00003207

 1 2 1.0 3 1.0 4 1.0 7 1.0
 2
 3
 4 5 1.0 6 1.0 8 1.0
 5
 6
 7
 8

